p cnf 817
-15 -253
-16 -256
-17 -259
-18 -262
-19 -265
-20 -268
-21 -271
-22 -274
-23 -277
-24 -280
-25 -283
-26 -286
-27 -289
-28 -292
-29 293
-30 294
-31 295
-32 296
-33 -16
-33 -17
16 17 33
-34 -18
-34 -19
18 19 34
-35 -20
-35 -21
20 21 35
-36 -22
-36 -23
22 23 36
-37 -24
-37 -25
24 25 37
-38 -26
-38 -27
26 27 38
-39 -28
-39 -29
28 29 39
-40 -30
-40 -31
30 31 40
-41 33
-41 34
-33 -34 41
-42 35
-42 36
-35 -36 42
-43 37
-43 38
-37 -38 43
-44 39
-44 40
-39 -40 44
-45 41
-45 42
-41 -42 45
-46 43
-46 44
-43 -44 46
-47 45
-47 46
-45 -46 47
-48 -32
-48 47
32 -47 48
-49 -15
-49 16
15 -16 49
-50 15
-50 -16
-15 16 50
-51 -49
-51 -50
49 50 51
-52 15
-52 16
-15 -16 52
-53 -15
-53 -51
15 51 53
-54 15
-54 51
-15 -51 54
-55 -53
-55 -54
53 54 55
-56 15
-56 -51
-15 51 56
-57 -52
-57 -56
52 56 57
-58 -16
-58 17
16 -17 58
-59 16
-59 -17
-16 17 59
-60 -58
-60 -59
58 59 60
-61 16
-61 17
-16 -17 61
-62 57
-62 -60
-57 60 62
-63 -57
-63 60
57 -60 63
-64 -62
-64 -63
62 63 64
-65 -57
-65 -60
57 60 65
-66 -61
-66 -65
61 65 66
-67 -17
-67 18
17 -18 67
-68 17
-68 -18
-17 18 68
-69 -67
-69 -68
67 68 69
-70 17
-70 18
-17 -18 70
-71 66
-71 -69
-66 69 71
-72 -66
-72 69
66 -69 72
-73 -71
-73 -72
71 72 73
-74 -66
-74 -69
66 69 74
-75 -70
-75 -74
70 74 75
-76 -18
-76 19
18 -19 76
-77 18
-77 -19
-18 19 77
-78 -76
-78 -77
76 77 78
-79 18
-79 19
-18 -19 79
-80 75
-80 -78
-75 78 80
-81 -75
-81 78
75 -78 81
-82 -80
-82 -81
80 81 82
-83 -75
-83 -78
75 78 83
-84 -79
-84 -83
79 83 84
-85 -19
-85 20
19 -20 85
-86 19
-86 -20
-19 20 86
-87 -85
-87 -86
85 86 87
-88 19
-88 20
-19 -20 88
-89 84
-89 -87
-84 87 89
-90 -84
-90 87
84 -87 90
-91 -89
-91 -90
89 90 91
-92 -84
-92 -87
84 87 92
-93 -88
-93 -92
88 92 93
-94 -20
-94 21
20 -21 94
-95 20
-95 -21
-20 21 95
-96 -94
-96 -95
94 95 96
-97 20
-97 21
-20 -21 97
-98 93
-98 -96
-93 96 98
-99 -93
-99 96
93 -96 99
-100 -98
-100 -99
98 99 100
-101 -93
-101 -96
93 96 101
-102 -97
-102 -101
97 101 102
-103 -21
-103 22
21 -22 103
-104 21
-104 -22
-21 22 104
-105 -103
-105 -104
103 104 105
-106 21
-106 22
-21 -22 106
-107 102
-107 -105
-102 105 107
-108 -102
-108 105
102 -105 108
-109 -107
-109 -108
107 108 109
-110 -102
-110 -105
102 105 110
-111 -106
-111 -110
106 110 111
-112 -22
-112 23
22 -23 112
-113 22
-113 -23
-22 23 113
-114 -112
-114 -113
112 113 114
-115 22
-115 23
-22 -23 115
-116 111
-116 -114
-111 114 116
-117 -111
-117 114
111 -114 117
-118 -116
-118 -117
116 117 118
-119 -111
-119 -114
111 114 119
-120 -115
-120 -119
115 119 120
-121 -23
-121 24
23 -24 121
-122 23
-122 -24
-23 24 122
-123 -121
-123 -122
121 122 123
-124 23
-124 24
-23 -24 124
-125 120
-125 -123
-120 123 125
-126 -120
-126 123
120 -123 126
-127 -125
-127 -126
125 126 127
-128 -120
-128 -123
120 123 128
-129 -124
-129 -128
124 128 129
-130 -24
-130 25
24 -25 130
-131 24
-131 -25
-24 25 131
-132 -130
-132 -131
130 131 132
-133 24
-133 25
-24 -25 133
-134 129
-134 -132
-129 132 134
-135 -129
-135 132
129 -132 135
-136 -134
-136 -135
134 135 136
-137 -129
-137 -132
129 132 137
-138 -133
-138 -137
133 137 138
-139 -25
-139 26
25 -26 139
-140 25
-140 -26
-25 26 140
-141 -139
-141 -140
139 140 141
-142 25
-142 26
-25 -26 142
-143 138
-143 -141
-138 141 143
-144 -138
-144 141
138 -141 144
-145 -143
-145 -144
143 144 145
-146 -138
-146 -141
138 141 146
-147 -142
-147 -146
142 146 147
-148 -26
-148 27
26 -27 148
-149 26
-149 -27
-26 27 149
-150 -148
-150 -149
148 149 150
-151 26
-151 27
-26 -27 151
-152 147
-152 -150
-147 150 152
-153 -147
-153 150
147 -150 153
-154 -152
-154 -153
152 153 154
-155 -147
-155 -150
147 150 155
-156 -151
-156 -155
151 155 156
-157 -27
-157 28
27 -28 157
-158 27
-158 -28
-27 28 158
-159 -157
-159 -158
157 158 159
-160 27
-160 28
-27 -28 160
-161 156
-161 -159
-156 159 161
-162 -156
-162 159
156 -159 162
-163 -161
-163 -162
161 162 163
-164 -156
-164 -159
156 159 164
-165 -160
-165 -164
160 164 165
-166 -28
-166 29
28 -29 166
-167 28
-167 -29
-28 29 167
-168 -166
-168 -167
166 167 168
-169 28
-169 29
-28 -29 169
-170 165
-170 -168
-165 168 170
-171 -165
-171 168
165 -168 171
-172 -170
-172 -171
170 171 172
-173 -165
-173 -168
165 168 173
-174 -169
-174 -173
169 173 174
-175 -29
-175 30
29 -30 175
-176 29
-176 -30
-29 30 176
-177 -175
-177 -176
175 176 177
-178 29
-178 30
-29 -30 178
-179 174
-179 -177
-174 177 179
-180 -174
-180 177
174 -177 180
-181 -179
-181 -180
179 180 181
-182 -174
-182 -177
174 177 182
-183 -178
-183 -182
178 182 183
-184 -30
-184 31
30 -31 184
-185 30
-185 -31
-30 31 185
-186 -184
-186 -185
184 185 186
-187 30
-187 31
-30 -31 187
-188 183
-188 -186
-183 186 188
-189 -183
-189 186
183 -186 189
-190 -188
-190 -189
188 189 190
-191 -183
-191 -186
183 186 191
-192 -187
-192 -191
187 191 192
-193 -31
-193 32
31 -32 193
-194 31
-194 -32
-31 32 194
-195 -193
-195 -194
193 194 195
-196 31
-196 32
-31 -32 196
-197 192
-197 -195
-192 195 197
-198 -192
-198 195
192 -195 198
-199 -197
-199 -198
197 198 199
-200 -192
-200 -195
192 195 200
-201 -196
-201 -200
196 200 201
-202 15
-202 -55
-15 55 202
-203 -15
-203 17
15 -17 203
-204 -202
-204 -203
202 203 204
-205 15
-205 -64
-15 64 205
-206 -15
-206 18
15 -18 206
-207 -205
-207 -206
205 206 207
-208 15
-208 -73
-15 73 208
-209 -15
-209 19
15 -19 209
-210 -208
-210 -209
208 209 210
-211 15
-211 -82
-15 82 211
-212 -15
-212 20
15 -20 212
-213 -211
-213 -212
211 212 213
-214 15
-214 -91
-15 91 214
-215 -15
-215 21
15 -21 215
-216 -214
-216 -215
214 215 216
-217 15
-217 -100
-15 100 217
-218 -15
-218 22
15 -22 218
-219 -217
-219 -218
217 218 219
-220 15
-220 -109
-15 109 220
-221 -15
-221 23
15 -23 221
-222 -220
-222 -221
220 221 222
-223 15
-223 -118
-15 118 223
-224 -15
-224 24
15 -24 224
-225 -223
-225 -224
223 224 225
-226 15
-226 -127
-15 127 226
-227 -15
-227 25
15 -25 227
-228 -226
-228 -227
226 227 228
-229 15
-229 -136
-15 136 229
-230 -15
-230 26
15 -26 230
-231 -229
-231 -230
229 230 231
-232 15
-232 -145
-15 145 232
-233 -15
-233 27
15 -27 233
-234 -232
-234 -233
232 233 234
-235 15
-235 -154
-15 154 235
-236 -15
-236 28
15 -28 236
-237 -235
-237 -236
235 236 237
-238 15
-238 -163
-15 163 238
-239 -15
-239 29
15 -29 239
-240 -238
-240 -239
238 239 240
-241 15
-241 -172
-15 172 241
-242 -15
-242 30
15 -30 242
-243 -241
-243 -242
241 242 243
-244 15
-244 -181
-15 181 244
-245 -15
-245 31
15 -31 245
-246 -244
-246 -245
244 245 246
-247 15
-247 -190
-15 190 247
-248 -15
-248 32
15 -32 248
-249 -247
-249 -248
247 248 249
-250 15
-250 -199
-15 199 250
-251 1
-251 48
-1 -48 251
-252 -48
-252 49
48 -49 252
-253 -251
-253 -252
251 252 253
-254 2
-254 48
-2 -48 254
-255 -48
-255 -204
48 204 255
-256 -254
-256 -255
254 255 256
-257 3
-257 48
-3 -48 257
-258 -48
-258 -207
48 207 258
-259 -257
-259 -258
257 258 259
-260 4
-260 48
-4 -48 260
-261 -48
-261 -210
48 210 261
-262 -260
-262 -261
260 261 262
-263 5
-263 48
-5 -48 263
-264 -48
-264 -213
48 213 264
-265 -263
-265 -264
263 264 265
-266 6
-266 48
-6 -48 266
-267 -48
-267 -216
48 216 267
-268 -266
-268 -267
266 267 268
-269 7
-269 48
-7 -48 269
-270 -48
-270 -219
48 219 270
-271 -269
-271 -270
269 270 271
-272 8
-272 48
-8 -48 272
-273 -48
-273 -222
48 222 273
-274 -272
-274 -273
272 273 274
-275 9
-275 48
-9 -48 275
-276 -48
-276 -225
48 225 276
-277 -275
-277 -276
275 276 277
-278 10
-278 48
-10 -48 278
-279 -48
-279 -228
48 228 279
-280 -278
-280 -279
278 279 280
-281 11
-281 48
-11 -48 281
-282 -48
-282 -231
48 231 282
-283 -281
-283 -282
281 282 283
-284 12
-284 48
-12 -48 284
-285 -48
-285 -234
48 234 285
-286 -284
-286 -285
284 285 286
-287 13
-287 48
-13 -48 287
-288 -48
-288 -237
48 237 288
-289 -287
-289 -288
287 288 289
-290 14
-290 48
-14 -48 290
-291 -48
-291 -240
48 240 291
-292 -290
-292 -291
290 291 292
-293 -48
-293 -243
48 243 293
-294 -48
-294 -246
48 246 294
-295 -48
-295 -249
48 249 295
-296 -48
-296 250
48 -250 296
-297 -32
-297 201
32 -201 297
-298 15
-298 -297
-15 297 298
298
